60
1 0 69
2 0 3
2 1 45
3 0 23
3 1 52
3 2 80
4 0 11
4 1 32
4 2 34
4 3 54
5 0 68
5 1 49
5 2 2
5 3 42
5 4 67
6 0 67
6 1 31
6 2 22
6 3 70
6 4 42
6 5 10
7 0 60
7 1 18
7 2 54
7 3 24
7 4 61
7 5 77
7 6 57
8 0 16
8 1 49
8 2 16
8 3 13
8 4 15
8 5 26
8 6 7
8 7 15
9 0 28
9 1 63
9 2 48
9 3 40
9 4 23
9 5 19
9 6 34
9 7 75
9 8 16
10 0 2
10 1 40
10 2 80
10 3 29
10 4 32
10 5 2
10 6 1
10 7 30
10 8 55
10 9 72
11 0 60
11 1 80
11 2 30
11 3 8
11 4 46
11 5 22
11 6 58
11 7 23
11 8 49
11 9 34
11 10 7
12 0 46
12 1 30
12 2 47
12 3 70
12 4 51
12 5 72
12 6 31
12 7 1
12 8 9
12 9 24
12 10 5
12 11 27
13 0 23
13 1 22
13 2 36
13 3 7
13 4 35
13 5 14
13 6 8
13 7 50
13 8 18
13 9 23
13 10 34
13 11 79
13 12 16
14 0 61
14 1 44
14 2 72
14 3 15
14 4 18
14 5 22
14 6 22
14 7 4
14 8 80
14 9 28
14 10 38
14 11 23
14 12 44
14 13 80
15 0 62
15 1 25
15 2 30
15 3 28
15 4 65
15 5 33
15 6 56
15 7 10
15 8 74
15 9 66
15 10 48
15 11 79
15 12 59
15 13 12
15 14 32
16 0 11
16 1 28
16 2 34
16 3 30
16 4 15
16 5 3
16 6 32
16 7 28
16 8 35
16 9 21
16 10 48
16 11 40
16 12 1
16 13 28
16 14 51
16 15 43
17 0 33
17 1 25
17 2 55
17 3 5
17 4 52
17 5 41
17 6 71
17 7 63
17 8 70
17 9 12
17 10 30
17 11 76
17 12 8
17 13 78
17 14 10
17 15 79
17 16 52
18 0 29
18 1 56
18 2 34
18 3 15
18 4 72
18 5 52
18 6 41
18 7 50
18 8 17
18 9 22
18 10 6
18 11 22
18 12 21
18 13 61
18 14 37
18 15 67
18 16 64
18 17 11
19 0 66
19 1 28
19 2 42
19 3 30
19 4 76
19 5 3
19 6 78
19 7 59
19 8 24
19 9 60
19 10 38
19 11 3
19 12 16
19 13 28
19 14 45
19 15 46
19 16 14
19 17 24
19 18 44
20 0 65
20 1 68
20 2 29
20 3 39
20 4 1
20 5 2
20 6 5
20 7 25
20 8 46
20 9 70
20 10 27
20 11 17
20 12 50
20 13 9
20 14 43
20 15 37
20 16 15
20 17 69
20 18 66
20 19 80
21 0 69
21 1 45
21 2 35
21 3 77
21 4 8
21 5 68
21 6 34
21 7 38
21 8 17
21 9 48
21 10 73
21 11 58
21 12 66
21 13 35
21 14 76
21 15 5
21 16 44
21 17 18
21 18 33
21 19 34
21 20 63
22 0 52
22 1 54
22 2 60
22 3 14
22 4 60
22 5 71
22 6 64
22 7 8
22 8 72
22 9 9
22 10 54
22 11 79
22 12 71
22 13 58
22 14 10
22 15 58
22 16 60
22 17 59
22 18 5
22 19 14
22 20 62
22 21 79
23 0 20
23 1 43
23 2 65
23 3 27
23 4 74
23 5 23
23 6 39
23 7 32
23 8 56
23 9 61
23 10 35
23 11 24
23 12 16
23 13 57
23 14 31
23 15 48
23 16 24
23 17 24
23 18 44
23 19 32
23 20 52
23 21 35
23 22 7
24 0 13
24 1 6
24 2 38
24 3 15
24 4 60
24 5 7
24 6 37
24 7 21
24 8 74
24 9 36
24 10 57
24 11 20
24 12 7
24 13 40
24 14 21
24 15 77
24 16 2
24 17 65
24 18 39
24 19 2
24 20 14
24 21 34
24 22 77
24 23 69
25 0 21
25 1 37
25 2 24
25 3 64
25 4 60
25 5 16
25 6 52
25 7 3
25 8 16
25 9 55
25 10 77
25 11 25
25 12 36
25 13 44
25 14 26
25 15 42
25 16 40
25 17 43
25 18 67
25 19 23
25 20 15
25 21 2
25 22 79
25 23 45
25 24 12
26 0 39
26 1 33
26 2 60
26 3 59
26 4 53
26 5 33
26 6 52
26 7 66
26 8 67
26 9 66
26 10 44
26 11 50
26 12 49
26 13 77
26 14 4
26 15 5
26 16 8
26 17 58
26 18 44
26 19 15
26 20 7
26 21 13
26 22 29
26 23 61
26 24 5
26 25 7
27 0 4
27 1 5
27 2 77
27 3 32
27 4 32
27 5 30
27 6 67
27 7 33
27 8 75
27 9 64
27 10 1
27 11 15
27 12 17
27 13 33
27 14 42
27 15 58
27 16 80
27 17 67
27 18 53
27 19 49
27 20 28
27 21 56
27 22 1
27 23 13
27 24 76
27 25 54
27 26 27
28 0 43
28 1 22
28 2 75
28 3 21
28 4 19
28 5 55
28 6 33
28 7 36
28 8 61
28 9 10
28 10 76
28 11 62
28 12 51
28 13 23
28 14 33
28 15 66
28 16 74
28 17 35
28 18 25
28 19 43
28 20 72
28 21 9
28 22 35
28 23 75
28 24 49
28 25 31
28 26 54
28 27 13
29 0 36
29 1 54
29 2 66
29 3 36
29 4 77
29 5 74
29 6 27
29 7 41
29 8 41
29 9 63
29 10 9
29 11 51
29 12 42
29 13 30
29 14 56
29 15 37
29 16 38
29 17 21
29 18 66
29 19 7
29 20 61
29 21 6
29 22 68
29 23 17
29 24 14
29 25 75
29 26 52
29 27 21
29 28 51
30 0 27
30 1 2
30 2 59
30 3 32
30 4 30
30 5 54
30 6 30
30 7 68
30 8 37
30 9 22
30 10 57
30 11 43
30 12 61
30 13 14
30 14 12
30 15 25
30 16 15
30 17 73
30 18 55
30 19 35
30 20 41
30 21 29
30 22 68
30 23 13
30 24 7
30 25 23
30 26 49
30 27 16
30 28 8
30 29 58
31 0 11
31 1 75
31 2 34
31 3 21
31 4 57
31 5 33
31 6 45
31 7 25
31 8 27
31 9 36
31 10 80
31 11 75
31 12 56
31 13 22
31 14 21
31 15 48
31 16 37
31 17 61
31 18 28
31 19 20
31 20 20
31 21 3
31 22 24
31 23 26
31 24 49
31 25 67
31 26 5
31 27 60
31 28 75
31 29 32
31 30 12
32 0 71
32 1 10
32 2 21
32 3 33
32 4 14
32 5 26
32 6 30
32 7 6
32 8 60
32 9 18
32 10 56
32 11 80
32 12 26
32 13 51
32 14 67
32 15 48
32 16 26
32 17 26
32 18 38
32 19 73
32 20 51
32 21 33
32 22 57
32 23 68
32 24 74
32 25 59
32 26 57
32 27 55
32 28 7
32 29 74
32 30 70
32 31 80
33 0 21
33 1 21
33 2 62
33 3 74
33 4 67
33 5 38
33 6 43
33 7 34
33 8 69
33 9 1
33 10 16
33 11 55
33 12 15
33 13 35
33 14 39
33 15 10
33 16 7
33 17 11
33 18 68
33 19 37
33 20 18
33 21 24
33 22 63
33 23 67
33 24 14
33 25 71
33 26 59
33 27 5
33 28 67
33 29 22
33 30 20
33 31 23
33 32 57
34 0 35
34 1 73
34 2 73
34 3 33
34 4 7
34 5 35
34 6 19
34 7 21
34 8 9
34 9 2
34 10 33
34 11 65
34 12 15
34 13 38
34 14 53
34 15 31
34 16 33
34 17 9
34 18 52
34 19 18
34 20 20
34 21 21
34 22 57
34 23 62
34 24 31
34 25 71
34 26 12
34 27 10
34 28 4
34 29 51
34 30 69
34 31 64
34 32 68
34 33 26
35 0 2
35 1 11
35 2 43
35 3 68
35 4 53
35 5 19
35 6 69
35 7 58
35 8 8
35 9 7
35 10 41
35 11 80
35 12 70
35 13 27
35 14 9
35 15 7
35 16 40
35 17 69
35 18 24
35 19 68
35 20 13
35 21 4
35 22 52
35 23 1
35 24 17
35 25 42
35 26 3
35 27 42
35 28 8
35 29 54
35 30 30
35 31 64
35 32 5
35 33 17
35 34 8
36 0 48
36 1 62
36 2 50
36 3 69
36 4 15
36 5 54
36 6 23
36 7 1
36 8 5
36 9 58
36 10 47
36 11 10
36 12 17
36 13 72
36 14 21
36 15 42
36 16 63
36 17 39
36 18 67
36 19 47
36 20 59
36 21 13
36 22 79
36 23 19
36 24 56
36 25 29
36 26 79
36 27 77
36 28 10
36 29 26
36 30 54
36 31 23
36 32 44
36 33 76
36 34 59
36 35 33
37 0 42
37 1 33
37 2 2
37 3 51
37 4 35
37 5 68
37 6 20
37 7 47
37 8 29
37 9 74
37 10 28
37 11 40
37 12 61
37 13 80
37 14 34
37 15 79
37 16 32
37 17 79
37 18 63
37 19 16
37 20 8
37 21 32
37 22 62
37 23 7
37 24 80
37 25 3
37 26 26
37 27 24
37 28 39
37 29 26
37 30 22
37 31 74
37 32 2
37 33 30
37 34 14
37 35 12
37 36 40
38 0 76
38 1 62
38 2 32
38 3 66
38 4 26
38 5 65
38 6 52
38 7 68
38 8 40
38 9 31
38 10 78
38 11 77
38 12 15
38 13 28
38 14 36
38 15 64
38 16 60
38 17 31
38 18 11
38 19 1
38 20 62
38 21 52
38 22 33
38 23 80
38 24 13
38 25 18
38 26 26
38 27 2
38 28 65
38 29 58
38 30 38
38 31 16
38 32 19
38 33 73
38 34 43
38 35 12
38 36 68
38 37 72
39 0 56
39 1 32
39 2 46
39 3 46
39 4 28
39 5 70
39 6 10
39 7 18
39 8 74
39 9 67
39 10 11
39 11 33
39 12 63
39 13 34
39 14 70
39 15 56
39 16 33
39 17 32
39 18 22
39 19 60
39 20 34
39 21 67
39 22 46
39 23 60
39 24 9
39 25 75
39 26 66
39 27 43
39 28 39
39 29 7
39 30 59
39 31 35
39 32 7
39 33 76
39 34 7
39 35 77
39 36 6
39 37 1
39 38 39
40 0 78
40 1 27
40 2 16
40 3 72
40 4 43
40 5 35
40 6 15
40 7 63
40 8 3
40 9 76
40 10 53
40 11 32
40 12 9
40 13 31
40 14 50
40 15 43
40 16 22
40 17 49
40 18 37
40 19 8
40 20 49
40 21 53
40 22 40
40 23 4
40 24 54
40 25 24
40 26 8
40 27 45
40 28 48
40 29 49
40 30 47
40 31 51
40 32 5
40 33 48
40 34 51
40 35 29
40 36 37
40 37 51
40 38 63
40 39 45
41 0 46
41 1 80
41 2 22
41 3 54
41 4 47
41 5 6
41 6 29
41 7 75
41 8 16
41 9 69
41 10 64
41 11 15
41 12 6
41 13 66
41 14 19
41 15 10
41 16 15
41 17 30
41 18 37
41 19 45
41 20 35
41 21 27
41 22 3
41 23 7
41 24 62
41 25 19
41 26 53
41 27 21
41 28 67
41 29 35
41 30 14
41 31 14
41 32 44
41 33 19
41 34 15
41 35 79
41 36 29
41 37 41
41 38 54
41 39 68
41 40 13
42 0 48
42 1 13
42 2 25
42 3 62
42 4 36
42 5 5
42 6 77
42 7 68
42 8 19
42 9 43
42 10 11
42 11 29
42 12 78
42 13 74
42 14 67
42 15 11
42 16 62
42 17 32
42 18 15
42 19 14
42 20 67
42 21 53
42 22 78
42 23 30
42 24 36
42 25 55
42 26 29
42 27 34
42 28 19
42 29 65
42 30 47
42 31 41
42 32 61
42 33 65
42 34 19
42 35 26
42 36 12
42 37 45
42 38 50
42 39 50
42 40 11
42 41 52
43 0 15
43 1 77
43 2 2
43 3 71
43 4 66
43 5 62
43 6 14
43 7 41
43 8 73
43 9 54
43 10 16
43 11 67
43 12 10
43 13 49
43 14 74
43 15 27
43 16 37
43 17 39
43 18 59
43 19 40
43 20 5
43 21 14
43 22 73
43 23 80
43 24 50
43 25 4
43 26 8
43 27 4
43 28 55
43 29 47
43 30 3
43 31 66
43 32 73
43 33 44
43 34 6
43 35 38
43 36 26
43 37 71
43 38 16
43 39 6
43 40 68
43 41 20
43 42 47
44 0 36
44 1 74
44 2 64
44 3 74
44 4 69
44 5 70
44 6 73
44 7 70
44 8 70
44 9 20
44 10 46
44 11 53
44 12 73
44 13 40
44 14 70
44 15 35
44 16 37
44 17 45
44 18 60
44 19 4
44 20 56
44 21 16
44 22 80
44 23 26
44 24 10
44 25 26
44 26 8
44 27 69
44 28 44
44 29 39
44 30 27
44 31 23
44 32 29
44 33 23
44 34 34
44 35 80
44 36 4
44 37 48
44 38 46
44 39 20
44 40 29
44 41 42
44 42 43
44 43 80
45 0 38
45 1 49
45 2 18
45 3 50
45 4 22
45 5 79
45 6 2
45 7 63
45 8 36
45 9 2
45 10 53
45 11 71
45 12 1
45 13 79
45 14 31
45 15 65
45 16 49
45 17 56
45 18 66
45 19 7
45 20 31
45 21 9
45 22 63
45 23 36
45 24 54
45 25 36
45 26 63
45 27 51
45 28 51
45 29 11
45 30 13
45 31 66
45 32 29
45 33 70
45 34 77
45 35 74
45 36 32
45 37 31
45 38 8
45 39 67
45 40 53
45 41 68
45 42 25
45 43 22
45 44 2
46 0 79
46 1 80
46 2 59
46 3 9
46 4 20
46 5 1
46 6 63
46 7 21
46 8 56
46 9 73
46 10 59
46 11 32
46 12 33
46 13 17
46 14 29
46 15 39
46 16 48
46 17 62
46 18 18
46 19 67
46 20 58
46 21 22
46 22 59
46 23 9
46 24 23
46 25 26
46 26 10
46 27 23
46 28 3
46 29 79
46 30 62
46 31 45
46 32 78
46 33 25
46 34 62
46 35 78
46 36 12
46 37 36
46 38 43
46 39 41
46 40 12
46 41 39
46 42 68
46 43 52
46 44 7
46 45 64
47 0 59
47 1 58
47 2 4
47 3 68
47 4 78
47 5 54
47 6 47
47 7 44
47 8 7
47 9 74
47 10 58
47 11 54
47 12 27
47 13 40
47 14 24
47 15 77
47 16 67
47 17 44
47 18 78
47 19 65
47 20 72
47 21 6
47 22 5
47 23 70
47 24 22
47 25 32
47 26 63
47 27 58
47 28 60
47 29 46
47 30 7
47 31 48
47 32 38
47 33 6
47 34 57
47 35 67
47 36 71
47 37 7
47 38 20
47 39 28
47 40 75
47 41 43
47 42 53
47 43 48
47 44 23
47 45 51
47 46 1
48 0 48
48 1 40
48 2 24
48 3 61
48 4 76
48 5 31
48 6 14
48 7 58
48 8 8
48 9 11
48 10 61
48 11 45
48 12 25
48 13 60
48 14 75
48 15 38
48 16 62
48 17 6
48 18 11
48 19 22
48 20 10
48 21 21
48 22 49
48 23 19
48 24 20
48 25 54
48 26 56
48 27 29
48 28 78
48 29 32
48 30 6
48 31 58
48 32 25
48 33 65
48 34 33
48 35 23
48 36 3
48 37 12
48 38 66
48 39 29
48 40 77
48 41 68
48 42 77
48 43 35
48 44 22
48 45 77
48 46 77
48 47 8
49 0 36
49 1 16
49 2 20
49 3 24
49 4 78
49 5 20
49 6 3
49 7 25
49 8 63
49 9 38
49 10 9
49 11 69
49 12 78
49 13 3
49 14 13
49 15 39
49 16 33
49 17 15
49 18 54
49 19 6
49 20 15
49 21 15
49 22 18
49 23 5
49 24 15
49 25 10
49 26 66
49 27 65
49 28 73
49 29 51
49 30 28
49 31 5
49 32 48
49 33 11
49 34 32
49 35 52
49 36 27
49 37 23
49 38 20
49 39 61
49 40 28
49 41 56
49 42 33
49 43 22
49 44 80
49 45 79
49 46 10
49 47 22
49 48 3
50 0 71
50 1 79
50 2 53
50 3 19
50 4 79
50 5 19
50 6 18
50 7 24
50 8 8
50 9 39
50 10 73
50 11 55
50 12 50
50 13 5
50 14 7
50 15 2
50 16 15
50 17 11
50 18 69
50 19 68
50 20 41
50 21 19
50 22 71
50 23 8
50 24 27
50 25 78
50 26 23
50 27 44
50 28 61
50 29 76
50 30 35
50 31 7
50 32 28
50 33 23
50 34 76
50 35 46
50 36 71
50 37 13
50 38 72
50 39 43
50 40 57
50 41 24
50 42 18
50 43 13
50 44 62
50 45 27
50 46 79
50 47 15
50 48 5
50 49 37
51 0 46
51 1 55
51 2 9
51 3 73
51 4 33
51 5 67
51 6 31
51 7 71
51 8 43
51 9 16
51 10 8
51 11 24
51 12 5
51 13 8
51 14 51
51 15 31
51 16 53
51 17 10
51 18 46
51 19 60
51 20 22
51 21 62
51 22 10
51 23 64
51 24 71
51 25 68
51 26 24
51 27 41
51 28 77
51 29 13
51 30 24
51 31 62
51 32 74
51 33 39
51 34 65
51 35 3
51 36 67
51 37 77
51 38 23
51 39 66
51 40 1
51 41 34
51 42 28
51 43 37
51 44 30
51 45 13
51 46 69
51 47 78
51 48 56
51 49 18
51 50 32
52 0 4
52 1 3
52 2 33
52 3 10
52 4 45
52 5 7
52 6 15
52 7 20
52 8 80
52 9 10
52 10 42
52 11 50
52 12 60
52 13 76
52 14 19
52 15 16
52 16 14
52 17 68
52 18 28
52 19 22
52 20 80
52 21 35
52 22 45
52 23 67
52 24 12
52 25 14
52 26 63
52 27 42
52 28 34
52 29 48
52 30 42
52 31 65
52 32 25
52 33 63
52 34 21
52 35 42
52 36 10
52 37 37
52 38 31
52 39 69
52 40 10
52 41 66
52 42 20
52 43 37
52 44 16
52 45 3
52 46 19
52 47 18
52 48 42
52 49 64
52 50 20
52 51 67
53 0 79
53 1 60
53 2 54
53 3 24
53 4 44
53 5 18
53 6 72
53 7 80
53 8 62
53 9 73
53 10 72
53 11 64
53 12 75
53 13 34
53 14 40
53 15 47
53 16 69
53 17 44
53 18 30
53 19 78
53 20 7
53 21 7
53 22 50
53 23 17
53 24 9
53 25 19
53 26 74
53 27 40
53 28 72
53 29 4
53 30 16
53 31 8
53 32 57
53 33 33
53 34 42
53 35 26
53 36 9
53 37 54
53 38 52
53 39 70
53 40 48
53 41 49
53 42 28
53 43 21
53 44 30
53 45 47
53 46 42
53 47 32
53 48 76
53 49 11
53 50 53
53 51 40
53 52 67
54 0 1
54 1 15
54 2 62
54 3 31
54 4 63
54 5 68
54 6 62
54 7 47
54 8 28
54 9 78
54 10 19
54 11 27
54 12 72
54 13 31
54 14 55
54 15 40
54 16 34
54 17 33
54 18 33
54 19 75
54 20 39
54 21 76
54 22 32
54 23 77
54 24 5
54 25 73
54 26 26
54 27 19
54 28 57
54 29 24
54 30 56
54 31 79
54 32 16
54 33 47
54 34 68
54 35 71
54 36 34
54 37 43
54 38 29
54 39 20
54 40 26
54 41 33
54 42 71
54 43 8
54 44 5
54 45 3
54 46 64
54 47 41
54 48 47
54 49 47
54 50 72
54 51 13
54 52 47
54 53 53
55 0 15
55 1 74
55 2 11
55 3 22
55 4 30
55 5 12
55 6 67
55 7 60
55 8 58
55 9 58
55 10 8
55 11 39
55 12 36
55 13 21
55 14 66
55 15 35
55 16 36
55 17 69
55 18 66
55 19 30
55 20 42
55 21 27
55 22 42
55 23 50
55 24 9
55 25 76
55 26 69
55 27 47
55 28 10
55 29 74
55 30 47
55 31 28
55 32 55
55 33 18
55 34 6
55 35 16
55 36 48
55 37 48
55 38 46
55 39 65
55 40 76
55 41 58
55 42 39
55 43 42
55 44 16
55 45 70
55 46 2
55 47 60
55 48 49
55 49 48
55 50 29
55 51 52
55 52 73
55 53 23
55 54 10
56 0 44
56 1 42
56 2 46
56 3 75
56 4 60
56 5 56
56 6 3
56 7 18
56 8 48
56 9 43
56 10 37
56 11 38
56 12 10
56 13 45
56 14 72
56 15 70
56 16 40
56 17 31
56 18 3
56 19 68
56 20 14
56 21 66
56 22 58
56 23 64
56 24 36
56 25 11
56 26 61
56 27 38
56 28 67
56 29 37
56 30 4
56 31 24
56 32 34
56 33 62
56 34 77
56 35 74
56 36 12
56 37 44
56 38 31
56 39 54
56 40 56
56 41 26
56 42 68
56 43 56
56 44 25
56 45 52
56 46 54
56 47 2
56 48 80
56 49 8
56 50 80
56 51 60
56 52 52
56 53 43
56 54 26
56 55 8
57 0 7
57 1 39
57 2 52
57 3 15
57 4 21
57 5 56
57 6 39
57 7 42
57 8 77
57 9 68
57 10 35
57 11 57
57 12 50
57 13 20
57 14 68
57 15 79
57 16 36
57 17 78
57 18 2
57 19 20
57 20 52
57 21 46
57 22 58
57 23 80
57 24 40
57 25 49
57 26 12
57 27 22
57 28 66
57 29 31
57 30 50
57 31 35
57 32 59
57 33 55
57 34 39
57 35 29
57 36 74
57 37 48
57 38 9
57 39 51
57 40 68
57 41 34
57 42 78
57 43 35
57 44 48
57 45 38
57 46 16
57 47 39
57 48 15
57 49 14
57 50 2
57 51 18
57 52 52
57 53 57
57 54 1
57 55 72
57 56 14
58 0 26
58 1 11
58 2 36
58 3 13
58 4 61
58 5 74
58 6 21
58 7 74
58 8 57
58 9 27
58 10 13
58 11 24
58 12 3
58 13 80
58 14 27
58 15 56
58 16 17
58 17 8
58 18 68
58 19 1
58 20 31
58 21 79
58 22 13
58 23 48
58 24 65
58 25 13
58 26 56
58 27 25
58 28 44
58 29 39
58 30 29
58 31 4
58 32 71
58 33 47
58 34 49
58 35 47
58 36 59
58 37 62
58 38 36
58 39 39
58 40 73
58 41 78
58 42 34
58 43 30
58 44 15
58 45 58
58 46 43
58 47 73
58 48 32
58 49 66
58 50 58
58 51 18
58 52 5
58 53 36
58 54 5
58 55 53
58 56 25
58 57 74
59 0 8
59 1 3
59 2 5
59 3 2
59 4 74
59 5 72
59 6 50
59 7 7
59 8 67
59 9 30
59 10 36
59 11 68
59 12 50
59 13 42
59 14 33
59 15 69
59 16 3
59 17 37
59 18 76
59 19 17
59 20 64
59 21 52
59 22 6
59 23 40
59 24 23
59 25 77
59 26 69
59 27 38
59 28 61
59 29 43
59 30 9
59 31 73
59 32 53
59 33 42
59 34 10
59 35 29
59 36 41
59 37 16
59 38 78
59 39 2
59 40 26
59 41 11
59 42 48
59 43 74
59 44 50
59 45 21
59 46 43
59 47 78
59 48 33
59 49 10
59 50 24
59 51 56
59 52 57
59 53 52
59 54 47
59 55 61
59 56 47
59 57 13
59 58 70
